solution status: optimal solution found
objective value:                     251549.927911033
d11(0,0)                                            1 	(obj:0)
d11(1,1)                                            1 	(obj:0)
d11(2,3)                                            1 	(obj:0)
d11(2,4)                                            1 	(obj:0)
d11(2,5)                                            1 	(obj:0)
d11(2,6)                                            1 	(obj:0)
d11(3,7)                                            1 	(obj:0)
d11(3,8)                                            1 	(obj:0)
d11(3,9)                                            1 	(obj:0)
d11(3,11)                                           1 	(obj:0)
d11(3,13)                                           1 	(obj:0)
d11(4,15)                                           1 	(obj:0)
d11(4,16)                                           1 	(obj:0)
d11(4,17)                                           1 	(obj:0)
d11(4,18)                                           1 	(obj:0)
d11(4,19)                                           1 	(obj:0)
d11(4,20)                                           1 	(obj:0)
d11(4,21)                                           1 	(obj:0)
d11(4,22)                                           1 	(obj:0)
d11(4,23)                                           1 	(obj:0)
d11(4,25)                                           1 	(obj:0)
d11(4,27)                                           1 	(obj:0)
d11(4,28)                                           1 	(obj:0)
d11(4,29)                                           1 	(obj:0)
d11(5,33)                                           1 	(obj:0)
d11(5,53)                                           1 	(obj:0)
d11(6,63)                                           1 	(obj:0)
d11(6,64)                                           1 	(obj:0)
d11(6,65)                                           1 	(obj:0)
d11(6,66)                                           1 	(obj:0)
d11(6,67)                                           1 	(obj:0)
d11(6,68)                                           1 	(obj:0)
d11(6,69)                                           1 	(obj:0)
d11(6,70)                                           1 	(obj:0)
d11(6,71)                                           1 	(obj:0)
d11(6,72)                                           1 	(obj:0)
d11(6,73)                                           1 	(obj:0)
d11(6,74)                                           1 	(obj:0)
d11(6,75)                                           1 	(obj:0)
d11(6,76)                                           1 	(obj:0)
d11(6,77)                                           1 	(obj:0)
d11(6,78)                                           1 	(obj:0)
d11(6,79)                                           1 	(obj:0)
d11(6,80)                                           1 	(obj:0)
d11(6,81)                                           1 	(obj:0)
d11(6,82)                                           1 	(obj:0)
d11(6,83)                                           1 	(obj:0)
d11(6,84)                                           1 	(obj:0)
d11(6,85)                                           1 	(obj:0)
d11(6,86)                                           1 	(obj:0)
d11(6,87)                                           1 	(obj:0)
d11(6,88)                                           1 	(obj:0)
d11(6,89)                                           1 	(obj:0)
d11(6,91)                                           1 	(obj:0)
d11(6,92)                                           1 	(obj:0)
d11(6,93)                                           1 	(obj:0)
d11(6,94)                                           1 	(obj:0)
d11(6,95)                                           1 	(obj:0)
d11(6,96)                                           1 	(obj:0)
d11(6,97)                                           1 	(obj:0)
d11(6,98)                                           1 	(obj:0)
d11(6,99)                                           1 	(obj:0)
d11(6,100)                                          1 	(obj:0)
d11(6,101)                                          1 	(obj:0)
d11(6,102)                                          1 	(obj:0)
d11(6,103)                                          1 	(obj:0)
d11(6,104)                                          1 	(obj:0)
d11(6,105)                                          1 	(obj:0)
d11(6,106)                                          1 	(obj:0)
d11(6,107)                                          1 	(obj:0)
d11(6,109)                                          1 	(obj:0)
d11(6,110)                                          1 	(obj:0)
d11(6,111)                                          1 	(obj:0)
d11(6,113)                                          1 	(obj:0)
d11(6,114)                                          1 	(obj:0)
d11(6,115)                                          1 	(obj:0)
d11(6,116)                                          1 	(obj:0)
d11(6,117)                                          1 	(obj:0)
d11(6,118)                                          1 	(obj:0)
d11(6,119)                                          1 	(obj:0)
d11(6,120)                                          1 	(obj:0)
d11(6,121)                                          1 	(obj:0)
d11(6,122)                                          1 	(obj:0)
d11(6,123)                                          1 	(obj:0)
d11(6,125)                                          1 	(obj:0)
d11(6,126)                                          1 	(obj:0)
d12(1,2)                                            1 	(obj:0)
d12(5,32)                                           1 	(obj:0)
d12(5,34)                                           1 	(obj:0)
d12(5,36)                                           1 	(obj:0)
d12(5,38)                                           1 	(obj:0)
d12(5,40)                                           1 	(obj:0)
d12(5,42)                                           1 	(obj:0)
d12(5,44)                                           1 	(obj:0)
d12(5,46)                                           1 	(obj:0)
d12(5,48)                                           1 	(obj:0)
d12(5,50)                                           1 	(obj:0)
d12(5,52)                                           1 	(obj:0)
d12(5,54)                                           1 	(obj:0)
d12(5,56)                                           1 	(obj:0)
d12(5,58)                                           1 	(obj:0)
d12(5,60)                                           1 	(obj:0)
d12(5,62)                                           1 	(obj:0)
d21(4,15)                                           1 	(obj:0)
d21(5,31)                                           1 	(obj:0)
d21(5,32)                                           1 	(obj:0)
d21(5,33)                                           1 	(obj:0)
d21(5,35)                                           1 	(obj:0)
d21(5,39)                                           1 	(obj:0)
d21(5,47)                                           1 	(obj:0)
d21(6,63)                                           1 	(obj:0)
d21(6,64)                                           1 	(obj:0)
d21(6,65)                                           1 	(obj:0)
d21(6,66)                                           1 	(obj:0)
d21(6,67)                                           1 	(obj:0)
d21(6,68)                                           1 	(obj:0)
d21(6,69)                                           1 	(obj:0)
d21(6,71)                                           1 	(obj:0)
d21(6,72)                                           1 	(obj:0)
d21(6,73)                                           1 	(obj:0)
d21(6,75)                                           1 	(obj:0)
d21(6,79)                                           1 	(obj:0)
d21(6,80)                                           1 	(obj:0)
d21(6,81)                                           1 	(obj:0)
d21(6,83)                                           1 	(obj:0)
d21(6,87)                                           1 	(obj:0)
d21(6,95)                                           1 	(obj:0)
d21(6,96)                                           1 	(obj:0)
d21(6,97)                                           1 	(obj:0)
d21(6,98)                                           1 	(obj:0)
d21(6,99)                                           1 	(obj:0)
d21(6,101)                                          1 	(obj:0)
d21(6,103)                                          1 	(obj:0)
d21(6,105)                                          1 	(obj:0)
d21(6,111)                                          1 	(obj:0)
d21(6,113)                                          1 	(obj:0)
STE(1,1)                             10953.7566664872 	(obj:0)
STE(0,0)                                        12600 	(obj:0)
STE(1,2)                             12340.2426459209 	(obj:0)
STE(2,3)                              5634.0358130123 	(obj:0)
STE(2,4)                             7292.28571190112 	(obj:0)
STE(2,5)                             7020.52179244594 	(obj:0)
STE(2,6)                             8678.77169133476 	(obj:0)
STE(3,7)                             2967.78591412349 	(obj:0)
STE(3,8)                              4626.0358130123 	(obj:0)
STE(3,9)                              4626.0358130123 	(obj:0)
STE(3,10)                            6284.28571190112 	(obj:0)
STE(3,11)                            4354.27189355713 	(obj:0)
STE(3,12)                            6012.52179244594 	(obj:0)
STE(3,13)                            6012.52179244595 	(obj:0)
STE(3,14)                            7670.77169133476 	(obj:0)
STE(4,15)                             301.53601523469 	(obj:0)
STE(4,16)                            1959.78591412349 	(obj:0)
STE(4,17)                            1959.78591412351 	(obj:0)
STE(4,18)                            3618.03581301233 	(obj:0)
STE(4,19)                            1959.78591412351 	(obj:0)
STE(4,20)                             3618.0358130123 	(obj:0)
STE(4,21)                            3618.03581301233 	(obj:0)
STE(4,22)                            5276.28571190114 	(obj:0)
STE(4,23)                            1688.02199466829 	(obj:0)
STE(4,24)                            3346.27189355713 	(obj:0)
STE(4,25)                            3346.27189355715 	(obj:0)
STE(4,26)                            5004.52179244594 	(obj:0)
STE(4,27)                            3346.27189355715 	(obj:0)
STE(4,28)                            5004.52179244597 	(obj:0)
STE(4,29)                            5004.52179244593 	(obj:0)
STE(4,30)                            6662.77169133476 	(obj:0)
STE(5,31)                            -706.46398476531 	(obj:0)
STE(5,32)                            609.750101111196 	(obj:0)
STE(5,33)                            951.785914123486 	(obj:0)
STE(5,34)                            2267.99999999999 	(obj:0)
STE(5,35)                            951.785914123508 	(obj:0)
STE(5,36)                            2268.00000000001 	(obj:0)
STE(5,37)                            2610.03581301233 	(obj:0)
STE(5,38)                            3926.24989888883 	(obj:0)
STE(5,39)                            951.785914123508 	(obj:0)
STE(5,40)                            2268.00000000001 	(obj:0)
STE(5,41)                             2610.0358130123 	(obj:0)
STE(5,42)                            3926.24989888881 	(obj:0)
STE(5,43)                            2610.03581301233 	(obj:0)
STE(5,44)                            3926.24989888883 	(obj:0)
STE(5,45)                            4268.28571190114 	(obj:0)
STE(5,46)                            5584.49979777765 	(obj:0)
STE(5,47)                            680.021994668286 	(obj:0)
STE(5,48)                            1996.23608054479 	(obj:0)
STE(5,49)                            2338.27189355713 	(obj:0)
STE(5,50)                            3654.48597943363 	(obj:0)
STE(5,51)                            2338.27189355715 	(obj:0)
STE(5,52)                            3654.48597943365 	(obj:0)
STE(5,53)                            3996.52179244599 	(obj:0)
STE(5,54)                            5312.73587832245 	(obj:0)
STE(5,55)                            2338.27189355715 	(obj:0)
STE(5,56)                            3654.48597943366 	(obj:0)
STE(5,57)                            3996.52179244597 	(obj:0)
STE(5,58)                            5312.73587832247 	(obj:0)
STE(5,59)                            3996.52179244593 	(obj:0)
STE(5,60)                            5312.73587832243 	(obj:0)
STE(5,61)                            5654.77169133476 	(obj:0)
STE(5,62)                            6970.98577721127 	(obj:0)
STE(6,63)                           -3372.71388365414 	(obj:0)
STE(6,64)                           -1714.46398476531 	(obj:0)
STE(6,65)                           -2056.49979777763 	(obj:0)
STE(6,66)                           -398.249898888804 	(obj:0)
STE(6,67)                           -1714.46398476534 	(obj:0)
STE(6,68)                           -56.2140858765135 	(obj:0)
STE(6,69)                           -398.249898888838 	(obj:0)
STE(6,70)                            1259.99999999998 	(obj:0)
STE(6,71)                           -1714.46398476532 	(obj:0)
STE(6,72)                           -56.2140858764922 	(obj:0)
STE(6,73)                           -398.249898888817 	(obj:0)
STE(6,74)                            1260.00000000001 	(obj:0)
STE(6,75)                           -56.2140858765048 	(obj:0)
STE(6,76)                            1602.03581301233 	(obj:0)
STE(6,77)                                        1260 	(obj:0)
STE(6,78)                            2918.24989888883 	(obj:0)
STE(6,79)                           -1714.46398476532 	(obj:0)
STE(6,80)                           -56.2140858764922 	(obj:0)
STE(6,81)                           -398.249898888817 	(obj:0)
STE(6,82)                            1260.00000000001 	(obj:0)
STE(6,83)                           -56.2140858765261 	(obj:0)
STE(6,84)                             1602.0358130123 	(obj:0)
STE(6,85)                            1259.99999999998 	(obj:0)
STE(6,86)                            2918.24989888881 	(obj:0)
STE(6,87)                           -56.2140858765048 	(obj:0)
STE(6,88)                            1602.03581301233 	(obj:0)
STE(6,89)                                        1260 	(obj:0)
STE(6,90)                            2918.24989888883 	(obj:0)
STE(6,91)                            1602.03581301231 	(obj:0)
STE(6,92)                            3260.28571190114 	(obj:0)
STE(6,93)                            2918.24989888882 	(obj:0)
STE(6,94)                            4576.49979777771 	(obj:0)
STE(6,95)                           -1986.22790422054 	(obj:0)
STE(6,96)                           -327.978005331714 	(obj:0)
STE(6,97)                           -670.013818344039 	(obj:0)
STE(6,98)                            988.236080544792 	(obj:0)
STE(6,99)                           -327.978005331703 	(obj:0)
STE(6,100)                           1330.27189355713 	(obj:0)
STE(6,101)                           988.236080544803 	(obj:0)
STE(6,102)                           2646.48597943362 	(obj:0)
STE(6,103)                          -327.978005331681 	(obj:0)
STE(6,104)                           1330.27189355715 	(obj:0)
STE(6,105)                           988.236080544825 	(obj:0)
STE(6,106)                           2646.48597943364 	(obj:0)
STE(6,107)                           1330.27189355716 	(obj:0)
STE(6,108)                           2988.52179244599 	(obj:0)
STE(6,109)                           2646.48597943362 	(obj:0)
STE(6,110)                           4304.73587832245 	(obj:0)
STE(6,111)                           -327.97800533168 	(obj:0)
STE(6,112)                           1330.27189355715 	(obj:0)
STE(6,113)                           988.236080544792 	(obj:0)
STE(6,114)                           2646.48597943364 	(obj:0)
STE(6,115)                           1330.27189355714 	(obj:0)
STE(6,116)                           2988.52179244597 	(obj:0)
STE(6,117)                           2646.48597943366 	(obj:0)
STE(6,118)                           4304.73587832246 	(obj:0)
STE(6,119)                            1330.2718935571 	(obj:0)
STE(6,120)                           2988.52179244593 	(obj:0)
STE(6,121)                            2646.4859794336 	(obj:0)
STE(6,122)                            4304.7358783225 	(obj:0)
STE(6,123)                           2988.52179244593 	(obj:0)
STE(6,124)                           4646.77169133476 	(obj:0)
STE(6,125)                           4304.73587832244 	(obj:0)
STE(6,126)                           5962.98577721127 	(obj:0)
y1(6,99)                             1492.42490899995 	(obj:0)
y1(6,101)                            1492.42490899995 	(obj:0)
y1(6,103)                            1492.42490899995 	(obj:0)
y1(6,105)                            1492.42490899995 	(obj:0)
y1(6,107)                            1492.42490899995 	(obj:0)
y1(6,109)                            1492.42490899995 	(obj:0)
y1(6,111)                            1492.42490899995 	(obj:0)
y1(6,113)                            1492.42490899994 	(obj:0)
y1(6,115)                            1492.42490899995 	(obj:0)
y1(6,117)                            1492.42490899994 	(obj:0)
y1(6,119)                            1492.42490899995 	(obj:0)
y1(6,121)                            1492.42490899995 	(obj:0)
y1(6,123)                            1492.42490899995 	(obj:0)
y1(6,125)                            1492.42490899995 	(obj:0)
BG(6)                                4196.29249897935 	(obj:10)
AVE(1)                               3259.55177567504 	(obj:0)
AVE(2)                               3259.55588804169 	(obj:0)
WB(3)                                3579.36165209166 	(obj:0)
AVE(3)                               3579.36165209166 	(obj:0)
AVE(4)                               3579.36576445831 	(obj:0)
WB(5)                                 799.36013916623 	(obj:0)
AVE(5)                               3472.77007794174 	(obj:0)
WB(6)                                 3046.3618950668 	(obj:0)
AVE(6)                                3046.3618950668 	(obj:0)
WG(1)                                3259.55177567504 	(obj:10)
WG(2)                                3259.55588804169 	(obj:10)
WG(4)                                3579.36576445831 	(obj:10)
WG(5)                                2673.40993877551 	(obj:10)
BG(2)                                3373.59769168017 	(obj:10)
BG(3)                                4196.29249897957 	(obj:10)
BG(4)                                616.926734521253 	(obj:10)
y1(1,1)                              574.419000161501 	(obj:0)
y1(2,3)                              3880.54876812743 	(obj:0)
y1(2,4)                              2388.12385912749 	(obj:0)
y1(2,5)                              3880.54876812743 	(obj:0)
y1(2,6)                              2388.12385912749 	(obj:0)
y1(3,7)                              1492.42490899994 	(obj:0)
y1(3,9)                              1492.42490899994 	(obj:0)
y1(3,11)                             1492.42490899994 	(obj:0)
y1(3,13)                             1492.42490899994 	(obj:0)
y1(4,15)                             1492.42490899992 	(obj:0)
y1(4,17)                             1492.42490899992 	(obj:0)
y1(4,19)                             1492.42490899992 	(obj:0)
y1(4,21)                             1492.42490899992 	(obj:0)
y1(4,23)                             1492.42490899996 	(obj:0)
y1(4,25)                             1492.42490899992 	(obj:0)
y1(4,27)                             1492.42490899992 	(obj:0)
y1(4,29)                             1492.42490899995 	(obj:0)
y1(6,63)                             1492.42490899995 	(obj:0)
y1(6,65)                             1492.42490899995 	(obj:0)
y1(6,67)                             1492.42490899995 	(obj:0)
y1(6,69)                             1492.42490899995 	(obj:0)
y1(6,71)                             1492.42490899995 	(obj:0)
y1(6,73)                             1492.42490899995 	(obj:0)
y1(6,75)                             1492.42490899995 	(obj:0)
y1(6,77)                             1492.42490899995 	(obj:0)
y1(6,79)                             1492.42490899995 	(obj:0)
y1(6,81)                             1492.42490899995 	(obj:0)
y1(6,83)                             1492.42490899995 	(obj:0)
y1(6,85)                             1492.42490899995 	(obj:0)
y1(6,87)                             1492.42490899995 	(obj:0)
y1(6,89)                             1492.42490899995 	(obj:0)
y1(6,91)                             1492.42490899995 	(obj:0)
y1(6,93)                             1492.42490899995 	(obj:0)
y1(6,95)                             1492.42490899995 	(obj:0)
y1(6,97)                             1492.42490899995 	(obj:0)
y2(1,2)                              787.623837811433 	(obj:0)
y2(5,32)                             1385.48851144895 	(obj:0)
y2(5,34)                             1385.48851144895 	(obj:0)
y2(5,36)                             1385.48851144895 	(obj:0)
y2(5,38)                             1385.48851144895 	(obj:0)
y2(5,40)                             1385.48851144895 	(obj:0)
y2(5,42)                             1385.48851144895 	(obj:0)
y2(5,44)                             1385.48851144895 	(obj:0)
y2(5,46)                             1385.48851144895 	(obj:0)
y2(5,48)                             1385.48851144895 	(obj:0)
y2(5,50)                             1385.48851144895 	(obj:0)
y2(5,52)                             1385.48851144895 	(obj:0)
y2(5,54)                             1385.48851144895 	(obj:0)
y2(5,56)                             1385.48851144895 	(obj:0)
y2(5,58)                             1385.48851144895 	(obj:0)
y2(5,60)                             1385.48851144895 	(obj:0)
y2(5,62)                             1385.48851144895 	(obj:0)
